N = 6;
H = 6;
T = 2;

avail = array3d(1..N, 1..H, 1..T, [5, 3, 4, 5, 1, 4, 2, 5, 2, 9, 10, 8, 8, 7, 9, 7, 7, 6, 10, 10, 10, 5, 3, 0, 5, 1, 5, 5, 6, 1, 7, 4, 9, 4, 1, 5, 2, 9, 7, 10, 5, 7, 4, 8, 2, 5, 3, 7, 10, 8, 4, 7, 3, 5, 10, 1, 5, 0, 9, 1, 6, 5, 4, 8, 10, 4, 3, 4, 4, 1, 9, 4]);

r = array2d(1..H, 1..T, [0, 2, 1, 0, 1, 1, 1, 3, 2, 1, 1, 2]);
